data/CVRPLIB/Vrp-Set-XML100/instances/XML100_1316_17.vrp
NAME : XML100_1316_17
COMMENT : Generated by Queiroga, Sadykov, Uchoa, and Vidal (2021)
TYPE : CVRP
DIMENSION : 101
EDGE_WEIGHT_TYPE : EUC_2D
CAPACITY : 38
NODE_COORD_SECTION
1    667  349 
2    436  563 
3    181  608 
4    262  646 
5    409  210 
6    360  656 
7    755  308 
8    648  986 
9    474  274 
10   490  287 
11   224  603 
12   432  443 
13   763  337 
14   446  208 
15   663  314 
16   586  448 
17   780  471 
18   478  198 
19   436  83  
20   896  340 
21   345  155 
22   91   894 
23   456  284 
24   810  60  
25   294  644 
26   308  671 
27   481  315 
28   105  918 
29   652  869 
30   771  233 
31   493  264 
32   342  670 
33   476  952 
34   896  164 
35   301  512 
36   648  36  
37   537  171 
38   453  325 
39   175  67  
40   181  411 
41   291  383 
42   918  82  
43   928  959 
44   807  139 
45   669  123 
46   526  869 
47   363  618 
48   738  308 
49   74   189 
50   491  113 
51   533  58  
52   326  683 
53   704  211 
54   956  764 
55   388  864 
56   939  467 
57   849  230 
58   493  387 
59   628  768 
60   859  97  
61   665  562 
62   49   598 
63   124  301 
64   49   205 
65   681  177 
66   802  531 
67   639  243 
68   267  410 
69   988  1   
70   459  356 
71   573  132 
72   826  242 
73   323  930 
74   698  846 
75   732  521 
76   708  374 
77   747  280 
78   790  220 
79   145  560 
80   740  47  
81   262  613 
82   287  953 
83   842  12  
84   258  224 
85   494  314 
86   761  399 
87   472  618 
88   310  670 
89   188  388 
90   640  73  
91   486  368 
92   816  263 
93   81   754 
94   428  576 
95   179  135 
96   249  262 
97   238  260 
98   393  286 
99   442  260 
100  361  158 
101  778  258 
DEMAND_SECTION
1    0   
2    1   
3    1   
4    1   
5    1   
6    1   
7    1   
8    1   
9    1   
10   1   
11   1   
12   1   
13   1   
14   1   
15   1   
16   1   
17   1   
18   1   
19   1   
20   1   
21   1   
22   1   
23   1   
24   1   
25   1   
26   1   
27   1   
28   1   
29   1   
30   1   
31   1   
32   1   
33   1   
34   1   
35   1   
36   1   
37   1   
38   1   
39   1   
40   1   
41   1   
42   1   
43   1   
44   1   
45   1   
46   1   
47   1   
48   1   
49   1   
50   1   
51   1   
52   1   
53   1   
54   1   
55   1   
56   1   
57   1   
58   1   
59   1   
60   1   
61   1   
62   1   
63   1   
64   1   
65   1   
66   1   
67   1   
68   1   
69   1   
70   1   
71   1   
72   1   
73   1   
74   1   
75   1   
76   1   
77   1   
78   1   
79   1   
80   1   
81   1   
82   1   
83   1   
84   1   
85   1   
86   1   
87   1   
88   1   
89   1   
90   1   
91   1   
92   1   
93   1   
94   1   
95   1   
96   1   
97   1   
98   1   
99   1   
100  1   
101  1   
DEPOT_SECTION
1
-1
EOF
