data/CVRPLIB/Vrp-Set-XML100/solutions/XML100_1316_17.sol
Route #1: 14 66 52 64 44 89 35 79 23 82 68 41 59 43 33 56 71 91 77 29 100 76 6 47 75
Route #2: 15 11 34 40 67 39 88 62 63 48 38 94 96 95 83 20 99 18 49 50 70 36 17 13 4 97 98 22 8 30 9 84 26 37 69 90 57
Route #3: 85 16 65 74 60 86 1 93 46 5 31 51 87 25 24 3 80 10 2 78 61 92 21 27 81 72 54 32 45 58 73 28 7 42 53 55 19 12
Cost 7698
